&CONTROL
 calculation='relax'
 disk_io='low'
 dt=41.3414
 etot_conv_thr=1e-05
 forc_conv_thr=0.001
 input_xml_schema_file='Fe_Im-3m_0_dftd3.xml'
 iprint=100000
 max_seconds=10000000
 nstep=50
 outdir='./'
 prefix='Fe_Im-3m_0_dftd3'
 pseudo_dir='./'
 restart_mode='from_scratch'
 title='Fe_Im-3m_0_dftd3'
 tprnfor=.false.
 tstress=.false.
 verbosity='low'
 wf_collect=.false.
/
&SYSTEM
 degauss=0.01
 dftd3_threebody=.true.
 dftd3_version=4
 ecutrho=100.0
 ecutwfc=20.0
 force_symmorphic=.false.
 ibrav=0
 input_dft='PBE'
 lspinorb=.false.
 nat=2
 nbnd=26
 no_t_rev=.false.
 noinv=.false.
 noncolin=.false.
 nosym=.false.
 nosym_evc=.false.
 nspin=2
 ntyp=2
 occupations='smearing'
 smearing='gaussian'
 spline_ps=.false.
 starting_magnetization(1)=0.4
 starting_magnetization(2)=0.6
 tot_charge=0.0
 tot_magnetization=-1.0
 use_all_frac=.false.
 vdw_corr='DFT-D3'
/
&ELECTRONS
 conv_thr=1e-06
 diago_cg_maxiter=20
 diago_full_acc=.false.
 diago_thr_init=0.0
 diagonalization='davidson'
 electron_maxstep=100
 mixing_beta=0.7
 mixing_mode='plain'
 mixing_ndim=8
 tbeta_smoothing=.false.
 tq_smoothing=.false.
 tqr=.false.
/
&IONS
 delta_t=1.0
 ion_dynamics='bfgs'
 ion_temperature='rescale-v'
 nraise=1
 pot_extrapolation='atomic'
 tempw=300.0
 tolp=100.0
 wfc_extrapolation='none'
/
&CELL
 cell_dynamics='bfgs'
 cell_factor=2.0
 press=0.0
 press_conv_thr=0.5
/
ATOMIC_SPECIES
 Fe 55.845 fe_pbe_v1.5.uspp.F.UPF
 Fe1 55.845 fe_pbe_v1.5.uspp.F.UPF
ATOMIC_POSITIONS crystal
Fe     0.00000000    0.00000000    0.00000000
Fe1    0.50000000    0.50000000    0.50000000
K_POINTS automatic
 2 2 2 1 1 1
CELL_PARAMETERS bohr
  5.40650600   0.00000000   0.00000000 
  0.00000000   5.40650600   0.00000000 
  0.00000000   0.00000000   5.40650600 