&INPUTPH
 amass(1)= 26.980
 electron_phonon='interpolated'
 epsil=.false.
 fildvscf='aldv'
 fildyn='al.dyn'
 ldisp=.true.
 nq1=4
 nq2=4
 nq3=4
 outdir='/home/pietro/espresso-svn/tempdir/'
 prefix='aluminum'
 tr2_ph=1e-10
 trans=.true.
 zeu=.false.
 zue=.false.
/
