&INPUTPH
 epsil=.true.
 fildyn='SiO2_36-2.dynG'
 prefix='SiO2_OR_36-2'
 qplot=.true.
 tr2_ph=1e-14
 trans=.true.
 zeu=.true.
 zue=.false.
/
  10
 0.1 0.0 0.0 0.1
 0.2 0.0 0.0 0.1
 0.3 0.0 0.0 0.1
 0.4 0.0 0.0 0.1
 0.5 0.0 0.0 0.1
 0.6 0.0 0.0 0.1
 0.7 0.0 0.0 0.1
 0.8 0.0 0.0 0.1
 0.9 0.0 0.0 0.1
 1.0 0.0 0.0 0.1
