BEGIN
BEGIN_PATH_INPUT
&PATH
 CI_scheme='no-CI'
 ds=1.0
 first_last_opt=.false.
 k_max=0.1
 k_min=0.1
 nstep_path=50
 num_of_images=4
 opt_scheme='broyden'
 path_thr=10.0
 string_method='neb'
 use_freezing=.false.
 use_masses=.false.
/
END_PATH_INPUT
BEGIN_ENGINE_INPUT
&CONTROL
 calculation='scf'
 disk_io='low'
 dt=41.3414
 etot_conv_thr=1e-05
 forc_conv_thr=0.001
 iprint=100000
 max_seconds=10000000
 nstep=50
 outdir='./'
 prefix='periodic_dft_65_WaterP1_0_neb_0'
 pseudo_dir='./'
 restart_mode='from_scratch'
 title='periodic_dft_65_WaterP1_0_neb_0'
 tprnfor=.false.
 tstress=.false.
 verbosity='low'
 wf_collect=.false.
/
&SYSTEM
 degauss=0.01
 ecutrho=200.0
 ecutwfc=40.0
 force_symmorphic=.false.
 ibrav=0
 input_dft='PZ'
 lspinorb=.false.
 nat = 3
 nbnd=12
 no_t_rev=.false.
 noinv=.false.
 noncolin=.false.
 nosym=.false.
 nosym_evc=.false.
 nspin=1
 ntyp=1
 occupations='smearing'
 smearing='gaussian'
 spline_ps=.false.
 starting_magnetization(1)=0.0
 tot_charge=0.0
 tot_magnetization=-1.0
 use_all_frac=.false.
/
&ELECTRONS
 conv_thr=1e-06
 diago_cg_maxiter=20
 diago_full_acc=.false.
 diago_thr_init=0.0
 diagonalization='davidson'
 electron_maxstep=100
 mixing_beta=0.7
 mixing_mode='plain'
 mixing_ndim=8
 tbeta_smoothing=.false.
 tq_smoothing=.false.
 tqr=.false.
/
&IONS
 delta_t=1.0
 ion_dynamics='bfgs'
 ion_temperature='rescale-v'
 nraise=1
 pot_extrapolation='atomic'
 tempw=300.0
 tolp=100.0
 wfc_extrapolation='none'
/
&CELL
 cell_dynamics='bfgs'
 cell_factor=2.0
 press=0.0
 press_conv_thr=0.5
/

ATOMIC_SPECIES
 H 1.00794 h_pbe_v0.4.nc.UPF
BEGIN_POSITIONS 
FIRST_IMAGE 
ATOMIC_POSITIONS { crystal }
H      0.61944200    0.00000000    0.00000000    0   1   0
H      0.00000000    0.00000000    0.00000000
H      0.12981400    0.00000000    0.00000000    1   0   1
INTERMEDIATE_IMAGE 
ATOMIC_POSITIONS { crystal }
H      0.45623300    0.00000000    0.00000000    0   1   0
H      0.00000000    0.00000000    0.00000000
H      0.29302300    0.00000000    0.00000000    1   0   1
INTERMEDIATE_IMAGE 
ATOMIC_POSITIONS { crystal }
H      0.29302300    0.00000000    0.00000000    0   1   0
H      0.00000000    0.00000000    0.00000000
H      0.45623300    0.00000000    0.00000000    1   0   1
LAST_IMAGE 
ATOMIC_POSITIONS { crystal }
H      0.12981400    0.00000000    0.00000000    0   1   0
H      0.00000000    0.00000000    0.00000000
H      0.61944200    0.00000000    0.00000000    1   0   1
END_POSITIONS 
K_POINTS automatic
 1 1 1 0 0 0
CELL_PARAMETERS bohr
 12.00000700  0.00000000  0.00000000
  0.00000000 12.00000700  0.00000000
  0.00000000  0.00000000 12.00000700
END_ENGINE_INPUT
END